Clp0006I 0  Obj 0 Primal inf 999.9999 (1000) Dual inf 6864796 (250000)
Clp0006I 200  Obj -4164253 Primal inf 304468 (1000)
Clp0006I 400  Obj -1427044 Primal inf 108455 (1000)
Clp0006I 600  Obj -25000 Primal inf 12301 (995)
Clp0006I 677  Obj -25000 Primal inf 27100 (995)
Clp0006I 749  Obj -25000 Primal inf 36721 (994)
Clp0006I 839  Obj -25000 Primal inf 40354 (989)
Clp0006I 939  Obj -25000 Primal inf 37395 (985)
Clp0006I 1042  Obj -25000 Primal inf 34867 (984)
Clp0006I 1150  Obj -25000 Primal inf 42102 (983)
Clp0006I 1252  Obj -25000 Primal inf 33976 (978)
Clp0006I 1365  Obj -25000 Primal inf 44398 (982)
Clp0006I 1475  Obj -25000 Primal inf 27849 (976)
Clp0006I 1585  Obj -25000 Primal inf 39324 (972)
Clp0006I 1689  Obj -25000 Primal inf 33283 (968)
Clp0006I 1801  Obj -25000 Primal inf 33876 (965)
Clp0006I 1910  Obj -25000 Primal inf 35981 (967)
Clp0006I 2012  Obj -25000 Primal inf 23931 (968)
Clp0006I 2128  Obj -25000 Primal inf 23740 (967)
Clp0006I 2241  Obj -25000 Primal inf 41399 (969)
Clp0006I 2341  Obj -25000 Primal inf 22662 (975)
Clp0006I 2461  Obj -25000 Primal inf 25569 (977)
Clp0006I 2571  Obj -25000 Primal inf 29294 (974)
Clp0006I 2684  Obj -25000 Primal inf 35585 (974)
Clp0006I 2791  Obj -25000 Primal inf 20384 (975)
Clp0006I 2904  Obj -25000 Primal inf 29956 (966)
Clp0006I 3017  Obj -25000 Primal inf 25869 (968)
Clp0006I 3122  Obj -25000 Primal inf 33106 (971)
Clp0006I 3239  Obj -25000 Primal inf 34380 (964)
Clp0006I 3348  Obj -25000 Primal inf 28615 (961)
Clp0006I 3464  Obj -25000 Primal inf 29489 (970)
Clp0006I 3563  Obj -25000 Primal inf 22062 (966)
Clp0006I 3677  Obj -25000 Primal inf 37382 (966)
Clp0006I 3768  Obj -25000 Primal inf 54113 (964)
Clp0006I 3857  Obj -25000 Primal inf 49237 (958)
Clp0006I 3952  Obj -25000 Primal inf 50003 (960)
Clp0006I 4047  Obj -25000 Primal inf 42439 (953)
Clp0006I 4148  Obj -25000 Primal inf 38326 (952)
Clp0006I 4237  Obj -25000 Primal inf 51409 (949)
Clp0006I 4343  Obj -25000 Primal inf 50192 (944)
Clp0006I 4444  Obj -25000 Primal inf 39854 (942)
Clp0006I 4549  Obj -25000 Primal inf 37066 (941)
Clp0006I 4651  Obj -25000 Primal inf 34623 (943)
Clp0006I 4748  Obj -25000 Primal inf 50747 (937)
Clp0006I 4844  Obj -25000 Primal inf 48915 (937)
Clp0006I 4946  Obj -25000 Primal inf 44432 (933)
Clp0006I 5039  Obj -25000 Primal inf 49856 (929)
Clp0006I 5138  Obj -25000 Primal inf 45390 (929)
Clp0006I 5229  Obj -25000 Primal inf 38698 (929)
Clp0006I 5316  Obj -25000 Primal inf 41720 (920)
Clp0006I 5404  Obj -25000 Primal inf 40251 (926)
Clp0006I 5501  Obj -25000 Primal inf 42002 (923)
Clp0006I 5587  Obj -25000 Primal inf 42173 (924)
Clp0006I 5685  Obj -25000 Primal inf 34207 (914)
Clp0006I 5779  Obj -25000 Primal inf 45586 (909)
Clp0006I 5869  Obj -25000 Primal inf 33905 (902)
Clp0006I 5971  Obj -25000 Primal inf 23434 (900)
Clp0006I 6068  Obj -25000 Primal inf 21079 (896)
Clp0006I 6167  Obj -25000 Primal inf 21927 (899)
Clp0006I 6263  Obj -25000 Primal inf 21593 (886)
Clp0006I 6351  Obj -25000 Primal inf 33042 (886)
Clp0006I 6434  Obj -25000 Primal inf 25937 (883)
Clp0006I 6521  Obj -25000 Primal inf 23417 (880)
Clp0006I 6614  Obj -25000 Primal inf 25797 (884)
Clp0006I 6716  Obj -25000 Primal inf 21532 (872)
Clp0006I 6807  Obj -25000 Primal inf 18457 (874)
Clp0006I 6906  Obj -25000 Primal inf 26153 (864)
Clp0006I 6999  Obj -25000 Primal inf 9335.9999 (857)
Clp0006I 7123  Obj -25000 Primal inf 5816.9999 (839)
Clp0006I 7206  Obj -25000 Primal inf 6904.9999 (823)
Clp0006I 7306  Obj -25000 Primal inf 6954.9999 (814)
Clp0006I 7409  Obj -25000 Primal inf 6867.9999 (802)
Clp0006I 7511  Obj -25000 Primal inf 6301.9999 (801)
Clp0006I 7633  Obj -25000 Primal inf 6617.9999 (798)
Clp0006I 7739  Obj -25000 Primal inf 5666.9999 (773)
Clp0006I 7834  Obj -25000 Primal inf 5367.9999 (769)
Clp0006I 7929  Obj -25000 Primal inf 3619.9999 (759)
Clp0006I 8018  Obj -25000 Primal inf 5059.9999 (766)
Clp0006I 8109  Obj -25000 Primal inf 4815.9999 (743)
Clp0006I 8200  Obj -25000 Primal inf 5575.9999 (739)
Clp0006I 8302  Obj -25000 Primal inf 7503.9999 (748)
Clp0006I 8402  Obj -25000 Primal inf 6652.9999 (739)
Clp0006I 8504  Obj -25000 Primal inf 6892.9999 (714)
Clp0006I 8603  Obj -25000 Primal inf 6043.9999 (702)
Clp0006I 8704  Obj -25000 Primal inf 5457.9999 (706)
Clp0006I 8796  Obj -25000 Primal inf 2899.9999 (688)
Clp0006I 8911  Obj -25000 Primal inf 3983.9999 (702)
Clp0006I 9009  Obj -25000 Primal inf 3978.9999 (690)
Clp0006I 9107  Obj -25000 Primal inf 4900.9999 (695)
Clp0006I 9204  Obj -25000 Primal inf 2911.9999 (678)
Clp0006I 9333  Obj -25000 Primal inf 4249.9999 (664)
Clp0006I 9424  Obj -25000 Primal inf 3028.9999 (667)
Clp0006I 9518  Obj -25000 Primal inf 3182.9999 (657)
Clp0006I 9616  Obj -25000 Primal inf 3479.9999 (652)
Clp0006I 9713  Obj -25000 Primal inf 4268.9999 (635)
Clp0006I 9807  Obj -25000 Primal inf 2282.9999 (617)
Clp0006I 9909  Obj -25000 Primal inf 2005.9999 (588)
Clp0006I 10020  Obj -25000 Primal inf 3302.9999 (588)
Clp0006I 10114  Obj -25000 Primal inf 3308.9999 (586)
Clp0006I 10196  Obj -25000 Primal inf 2914.9999 (596)
Clp0006I 10290  Obj -25000 Primal inf 3973.9999 (580)
Clp0006I 10380  Obj -25000 Primal inf 1785.9999 (563)
Clp0006I 10494  Obj -25000 Primal inf 1196.9999 (544)
Clp0006I 10601  Obj -25000 Primal inf 1534.9999 (524)
Clp0006I 10713  Obj -25000 Primal inf 1435 (485)
Clp0006I 10798  Obj -25000 Primal inf 1393 (459)
Clp0006I 10892  Obj -25000 Primal inf 1019 (443)
Clp0006I 10982  Obj -25000 Primal inf 1233 (442)
Clp0006I 11073  Obj -25000 Primal inf 1112 (421)
Clp0006I 11168  Obj -25000 Primal inf 929.99996 (415)
Clp0006I 11283  Obj -25000 Primal inf 641.99997 (342)
Clp0006I 11389  Obj -25000 Primal inf 1032 (276)
Clp0006I 11476  Obj -25000 Primal inf 659.99998 (235)
Clp0006I 11585  Obj -25000 Primal inf 705.99998 (207)
Clp0006I 11695  Obj -25000 Primal inf 400.99998 (154)
Clp0006I 11810  Obj -25000 Primal inf 160.99999 (94)
Clp0006I 11945  Obj -25000 Primal inf 172.99999 (73)
Clp0006I 12041  Obj -25000 Primal inf 310.99999 (105)
Clp0006I 12142  Obj -25000 Primal inf 29.999997 (30)
Clp0006I 12250  Obj -25000 Primal inf 27.999997 (28)
Clp0006I 12319  Obj -25000
Clp0000I Optimal - objective value -25000
Clp0000I Optimal - objective value -25000
Node 0 depth 0 unsatisfied 0 sum 0 obj -25000 guess -25000 branching on -1
Clp0000I Optimal - objective value -25000
Cbc0004I Integer solution of -25000 found after 0 iterations and 0 nodes (26.30 seconds)
Cbc0001I Search completed - best objective -25000, took 0 iterations and 0 nodes (26.39 seconds)
Cbc0035I Maximum depth 0, 0 variables fixed on reduced cost
Clp0000I Optimal - objective value -25000
Clp0000I Optimal - objective value -25000
x_169 = 1
x_877 = 1
x_1173 = 1
x_1809 = 1
x_2431 = 1
x_2778 = 1
x_3004 = 1
x_3761 = 1
x_4391 = 1
x_4774 = 1
x_5182 = 1
x_5924 = 1
x_6148 = 1
x_6527 = 1
x_7240 = 1
x_7541 = 1
x_8093 = 1
x_8730 = 1
x_9156 = 1
x_9664 = 1
x_10114 = 1
x_10815 = 1
x_11440 = 1
x_11828 = 1
x_12228 = 1
x_12581 = 1
x_13416 = 1
x_13759 = 1
x_14254 = 1
x_14649 = 1
x_15464 = 1
x_15605 = 1
x_16231 = 1
x_16625 = 1
x_17402 = 1
x_17517 = 1
x_18122 = 1
x_18619 = 1
x_19222 = 1
x_19738 = 1
x_20410 = 1
x_20645 = 1
x_21470 = 1
x_21577 = 1
x_22368 = 1
x_22651 = 1
x_23128 = 1
x_23551 = 1
x_24189 = 1
x_24756 = 1
x_25213 = 1
x_25576 = 1
x_26126 = 1
x_26996 = 1
x_27106 = 1
x_27686 = 1
x_28374 = 1
x_28855 = 1
x_29290 = 1
x_29537 = 1
x_30297 = 1
x_30794 = 1
x_31488 = 1
x_31521 = 1
x_32075 = 1
x_32678 = 1
x_33183 = 1
x_33662 = 1
x_34373 = 1
x_34763 = 1
x_35305 = 1
x_35567 = 1
x_36458 = 1
x_36886 = 1
x_37376 = 1
x_37736 = 1
x_38161 = 1
x_38633 = 1
x_39324 = 1
x_39707 = 1
x_40266 = 1
x_40715 = 1
x_41258 = 1
x_41632 = 1
x_42332 = 1
x_42603 = 1
x_43043 = 1
x_43760 = 1
x_44393 = 1
x_44767 = 1
x_45069 = 1
x_45639 = 1
x_46048 = 1
x_46637 = 1
x_47327 = 1
x_47973 = 1
x_48247 = 1
x_48574 = 1
x_49059 = 1
x_49789 = 1
x_50292 = 1
x_50837 = 1
x_51288 = 1
x_51520 = 1
x_52340 = 1
x_52528 = 1
x_53248 = 1
x_53864 = 1
x_54196 = 1
x_54560 = 1
x_55226 = 1
x_55646 = 1
x_56198 = 1
x_56770 = 1
x_57089 = 1
x_57745 = 1
x_58338 = 1
x_58509 = 1
x_59163 = 1
x_59846 = 1
x_60282 = 1
x_60962 = 1
x_61003 = 1
x_61703 = 1
x_62143 = 1
x_62904 = 1
x_63032 = 1
x_63737 = 1
x_64168 = 1
x_64711 = 1
x_65167 = 1
x_65670 = 1
x_66302 = 1
x_66594 = 1
x_67272 = 1
x_67716 = 1
x_68316 = 1
x_68586 = 1
x_69394 = 1
x_69595 = 1
x_70284 = 1
x_70701 = 1
x_71384 = 1
x_71600 = 1
x_72052 = 1
x_72617 = 1
x_73318 = 1
x_73511 = 1
x_74363 = 1
x_74842 = 1
x_75053 = 1
x_75629 = 1
x_76197 = 1
x_76775 = 1
x_77039 = 1
x_77967 = 1
x_78442 = 1
x_78555 = 1
x_79022 = 1
x_79705 = 1
x_80299 = 1
x_80547 = 1
x_81054 = 1
x_81544 = 1
x_82018 = 1
x_82742 = 1
x_83120 = 1
x_83714 = 1
x_84065 = 1
x_84720 = 1
x_85171 = 1
x_85644 = 1
x_86109 = 1
x_86618 = 1
x_87092 = 1
x_87808 = 1
x_88080 = 1
x_88997 = 1
x_89015 = 1
x_89588 = 1
x_90033 = 1
x_90573 = 1
x_91087 = 1
x_91590 = 1
x_92136 = 1
x_92508 = 1
x_93195 = 1
x_93849 = 1
x_94174 = 1
x_94798 = 1
x_95050 = 1
x_95743 = 1
x_96141 = 1
x_96721 = 1
x_97112 = 1
x_97545 = 1
x_98246 = 1
x_98927 = 1
x_99301 = 1
x_99530 = 1
x_100187 = 1
x_100611 = 1
x_101113 = 1
x_101615 = 1
x_102181 = 1
x_102822 = 1
x_103303 = 1
x_103630 = 1
x_104217 = 1
x_104755 = 1
x_105158 = 1
x_105666 = 1
x_106184 = 1
x_106657 = 1
x_107153 = 1
x_107516 = 1
x_108273 = 1
x_108650 = 1
x_109257 = 1
x_109591 = 1
x_110180 = 1
x_110631 = 1
x_111295 = 1
x_111857 = 1
x_112177 = 1
x_112579 = 1
x_113411 = 1
x_113634 = 1
x_114063 = 1
x_114847 = 1
x_115191 = 1
x_115708 = 1
x_116056 = 1
x_116976 = 1
x_117422 = 1
x_117878 = 1
x_118082 = 1
x_118826 = 1
x_119210 = 1
x_119796 = 1
x_120192 = 1
x_120679 = 1
x_121264 = 1
x_121627 = 1
x_122046 = 1
x_122505 = 1
x_123320 = 1
x_123513 = 1
x_124209 = 1
x_124599 = 1
x_125200 = 1
x_125734 = 1
x_126477 = 1
x_126672 = 1
x_127313 = 1
x_127540 = 1
x_128038 = 1
x_128578 = 1
x_129283 = 1
x_129753 = 1
x_130225 = 1
x_130699 = 1
x_131072 = 1
x_131571 = 1
x_132142 = 1
x_132712 = 1
x_133070 = 1
x_133739 = 1
x_134014 = 1
x_134676 = 1
x_135219 = 1
x_135561 = 1
x_136325 = 1
x_136654 = 1
x_137000 = 1
x_137688 = 1
x_138387 = 1
x_138621 = 1
x_139224 = 1
x_139660 = 1
x_140019 = 1
x_140765 = 1
x_141279 = 1
x_141888 = 1
x_142096 = 1
x_142566 = 1
x_143436 = 1
x_143506 = 1
x_144029 = 1
x_144507 = 1
x_145479 = 1
x_145607 = 1
x_146185 = 1
x_146610 = 1
x_147235 = 1
x_147843 = 1
x_148102 = 1
x_148804 = 1
x_149421 = 1
x_149807 = 1
x_150268 = 1
x_150597 = 1
x_151461 = 1
x_151601 = 1
x_152062 = 1
x_152624 = 1
x_153319 = 1
x_153694 = 1
x_154083 = 1
x_154780 = 1
x_155344 = 1
x_155814 = 1
x_156392 = 1
x_156729 = 1
x_157058 = 1
x_157502 = 1
x_158312 = 1
x_158524 = 1
x_159293 = 1
x_159549 = 1
x_160241 = 1
x_160866 = 1
x_161406 = 1
x_161834 = 1
x_162495 = 1
x_162652 = 1
x_163098 = 1
x_163781 = 1
x_164023 = 1
x_164638 = 1
x_165251 = 1
x_165860 = 1
x_166330 = 1
x_166585 = 1
x_167372 = 1
x_167952 = 1
x_168409 = 1
x_168829 = 1
x_169401 = 1
x_169981 = 1
x_170035 = 1
x_170889 = 1
x_171361 = 1
x_171946 = 1
x_172193 = 1
x_172568 = 1
x_173398 = 1
x_173978 = 1
x_174362 = 1
x_174771 = 1
x_175380 = 1
x_175616 = 1
x_176356 = 1
x_176945 = 1
x_177010 = 1
x_177836 = 1
x_178418 = 1
x_178992 = 1
x_179385 = 1
x_179858 = 1
x_180425 = 1
x_180750 = 1
x_181026 = 1
x_181865 = 1
x_182350 = 1
x_182557 = 1
x_183104 = 1
x_183704 = 1
x_184025 = 1
x_184914 = 1
x_185459 = 1
x_185933 = 1
x_186419 = 1
x_186841 = 1
x_187232 = 1
x_187791 = 1
x_188175 = 1
x_188534 = 1
x_189159 = 1
x_189845 = 1
x_190383 = 1
x_190966 = 1
x_191451 = 1
x_191640 = 1
x_192306 = 1
x_192920 = 1
x_193135 = 1
x_193879 = 1
x_194311 = 1
x_194647 = 1
x_195285 = 1
x_195823 = 1
x_196165 = 1
x_196787 = 1
x_197269 = 1
x_197960 = 1
x_198454 = 1
x_198727 = 1
x_199202 = 1
x_199934 = 1
x_200426 = 1
x_200913 = 1
x_201064 = 1
x_201655 = 1
x_202012 = 1
x_202917 = 1
x_203359 = 1
x_203854 = 1
x_204408 = 1
x_204786 = 1
x_205474 = 1
x_205706 = 1
x_206001 = 1
x_206762 = 1
x_207190 = 1
x_207882 = 1
x_208252 = 1
x_208991 = 1
x_209437 = 1
x_209839 = 1
x_210335 = 1
x_210990 = 1
x_211484 = 1
x_211985 = 1
x_212405 = 1
x_212971 = 1
x_213455 = 1
x_213986 = 1
x_214244 = 1
x_214932 = 1
x_215223 = 1
x_215875 = 1
x_216483 = 1
x_216870 = 1
x_217123 = 1
x_217542 = 1
x_218108 = 1
x_218947 = 1
x_219276 = 1
x_219871 = 1
x_220317 = 1
x_220890 = 1
x_221333 = 1
x_221848 = 1
x_222400 = 1
x_222903 = 1
x_223233 = 1
x_223938 = 1
x_224321 = 1
x_224912 = 1
x_225450 = 1
x_225777 = 1
x_226331 = 1
x_226869 = 1
x_227218 = 1
x_227897 = 1
x_228463 = 1
x_228896 = 1
x_229465 = 1
x_229536 = 1
x_230443 = 1
x_230810 = 1
x_231407 = 1
x_231928 = 1
x_232249 = 1
x_232980 = 1
x_233399 = 1
x_233948 = 1
x_234435 = 1
x_234989 = 1
x_235353 = 1
x_235953 = 1
x_236381 = 1
x_236994 = 1
x_237487 = 1
x_237956 = 1
x_238498 = 1
x_238999 = 1
x_239415 = 1
x_239993 = 1
x_240457 = 1
x_240584 = 1
x_241351 = 1
x_241982 = 1
x_242439 = 1
x_242867 = 1
x_243423 = 1
x_243930 = 1
x_244395 = 1
x_244929 = 1
x_245472 = 1
x_245800 = 1
x_246031 = 1
x_246968 = 1
x_247441 = 1
x_247944 = 1
x_248475 = 1
x_248969 = 1
x_249352 = 1
x_249949 = 1
real 0m27,746s user 0m27,520s sys 0m0,193s
